NAME          
ROWS
 N  OBJ
 L  c1
COLUMNS
    MARKER    'MARKER'                 'INTORG'
    x[1]      c1        445
    x[1]      OBJ       -532
    x[2]      c1        355
    x[2]      OBJ       -923
    x[3]      c1        659
    x[3]      OBJ       -847
    x[4]      c1        606
    x[4]      OBJ       -643
    x[5]      c1        264
    x[5]      OBJ       -870
    x[6]      c1        764
    x[6]      OBJ       -478
    x[7]      c1        515
    x[7]      OBJ       -925
    x[8]      c1        741
    x[8]      OBJ       -995
    x[9]      c1        110
    x[9]      OBJ       -860
    x[10]     c1        177
    x[10]     OBJ       -650
    x[11]     c1        980
    x[11]     OBJ       -524
    x[12]     c1        364
    x[12]     OBJ       -904
    x[13]     c1        697
    x[13]     OBJ       -531
    x[14]     c1        520
    x[14]     OBJ       -142
    x[15]     c1        546
    x[15]     OBJ       -106
    x[16]     c1        30
    x[16]     OBJ       -745
    x[17]     c1        279
    x[17]     OBJ       -338
    x[18]     c1        525
    x[18]     OBJ       -159
    x[19]     c1        741
    x[19]     OBJ       -471
    x[20]     c1        159
    x[20]     OBJ       -457
    x[21]     c1        63
    x[21]     OBJ       -908
    x[22]     c1        233
    x[22]     OBJ       -120
    x[23]     c1        190
    x[23]     OBJ       -540
    x[24]     c1        790
    x[24]     OBJ       -908
    x[25]     c1        874
    x[25]     OBJ       -798
    x[26]     c1        578
    x[26]     OBJ       -199
    x[27]     c1        748
    x[27]     OBJ       -678
    x[28]     c1        319
    x[28]     OBJ       -662
    x[29]     c1        808
    x[29]     OBJ       -212
    x[30]     c1        651
    x[30]     OBJ       -229
    x[31]     c1        760
    x[31]     OBJ       -77
    x[32]     c1        663
    x[32]     OBJ       -896
    x[33]     c1        804
    x[33]     OBJ       -565
    x[34]     c1        441
    x[34]     OBJ       -940
    x[35]     c1        309
    x[35]     OBJ       -288
    x[36]     c1        457
    x[36]     OBJ       -812
    x[37]     c1        619
    x[37]     OBJ       -42
    x[38]     c1        694
    x[38]     OBJ       -824
    x[39]     c1        797
    x[39]     OBJ       -280
    x[40]     c1        313
    x[40]     OBJ       -806
    x[41]     c1        931
    x[41]     OBJ       -919
    x[42]     c1        606
    x[42]     OBJ       -498
    x[43]     c1        363
    x[43]     OBJ       -530
    x[44]     c1        533
    x[44]     OBJ       -985
    x[45]     c1        400
    x[45]     OBJ       -653
    x[46]     c1        859
    x[46]     OBJ       -979
    x[47]     c1        515
    x[47]     OBJ       -431
    x[48]     c1        395
    x[48]     OBJ       -234
    x[49]     c1        817
    x[49]     OBJ       -343
    x[50]     c1        931
    x[50]     OBJ       -313
RHS
    rhs       c1        13469
RANGES
BOUNDS
 LO bounds    x[1]      0
 PL bounds    x[1]
 LO bounds    x[2]      0
 PL bounds    x[2]
 LO bounds    x[3]      0
 PL bounds    x[3]
 LO bounds    x[4]      0
 PL bounds    x[4]
 LO bounds    x[5]      0
 PL bounds    x[5]
 LO bounds    x[6]      0
 PL bounds    x[6]
 LO bounds    x[7]      0
 PL bounds    x[7]
 LO bounds    x[8]      0
 PL bounds    x[8]
 LO bounds    x[9]      0
 PL bounds    x[9]
 LO bounds    x[10]     0
 PL bounds    x[10]
 LO bounds    x[11]     0
 PL bounds    x[11]
 LO bounds    x[12]     0
 PL bounds    x[12]
 LO bounds    x[13]     0
 PL bounds    x[13]
 LO bounds    x[14]     0
 PL bounds    x[14]
 LO bounds    x[15]     0
 PL bounds    x[15]
 LO bounds    x[16]     0
 PL bounds    x[16]
 LO bounds    x[17]     0
 PL bounds    x[17]
 LO bounds    x[18]     0
 PL bounds    x[18]
 LO bounds    x[19]     0
 PL bounds    x[19]
 LO bounds    x[20]     0
 PL bounds    x[20]
 LO bounds    x[21]     0
 PL bounds    x[21]
 LO bounds    x[22]     0
 PL bounds    x[22]
 LO bounds    x[23]     0
 PL bounds    x[23]
 LO bounds    x[24]     0
 PL bounds    x[24]
 LO bounds    x[25]     0
 PL bounds    x[25]
 LO bounds    x[26]     0
 PL bounds    x[26]
 LO bounds    x[27]     0
 PL bounds    x[27]
 LO bounds    x[28]     0
 PL bounds    x[28]
 LO bounds    x[29]     0
 PL bounds    x[29]
 LO bounds    x[30]     0
 PL bounds    x[30]
 LO bounds    x[31]     0
 PL bounds    x[31]
 LO bounds    x[32]     0
 PL bounds    x[32]
 LO bounds    x[33]     0
 PL bounds    x[33]
 LO bounds    x[34]     0
 PL bounds    x[34]
 LO bounds    x[35]     0
 PL bounds    x[35]
 LO bounds    x[36]     0
 PL bounds    x[36]
 LO bounds    x[37]     0
 PL bounds    x[37]
 LO bounds    x[38]     0
 PL bounds    x[38]
 LO bounds    x[39]     0
 PL bounds    x[39]
 LO bounds    x[40]     0
 PL bounds    x[40]
 LO bounds    x[41]     0
 PL bounds    x[41]
 LO bounds    x[42]     0
 PL bounds    x[42]
 LO bounds    x[43]     0
 PL bounds    x[43]
 LO bounds    x[44]     0
 PL bounds    x[44]
 LO bounds    x[45]     0
 PL bounds    x[45]
 LO bounds    x[46]     0
 PL bounds    x[46]
 LO bounds    x[47]     0
 PL bounds    x[47]
 LO bounds    x[48]     0
 PL bounds    x[48]
 LO bounds    x[49]     0
 PL bounds    x[49]
 LO bounds    x[50]     0
 PL bounds    x[50]
ENDATA
